400 1584 
1 5 1
1 6 1
1 8 1
1 10 1
1 11 1
1 12 1
1 15 1
1 18 1
1 21 1
1 23 1
1 31 1
1 42 1
1 46 1
1 53 1
1 55 1
1 57 1
1 70 1
1 77 1
1 87 1
1 102 1
1 116 1
1 119 1
1 125 1
1 136 1
1 147 1
1 154 1
1 155 1
1 156 1
1 157 1
1 163 1
1 174 1
1 195 1
1 203 1
1 209 1
1 213 1
1 233 1
1 262 1
1 266 1
1 267 1
1 283 1
1 293 1
1 296 1
1 302 1
1 326 1
1 396 1
2 5 1
2 6 1
2 7 1
2 8 1
2 9 1
2 10 1
2 13 1
2 15 1
2 16 1
2 17 1
2 18 1
2 20 1
2 29 1
2 31 1
2 32 1
2 34 1
2 37 1
2 39 1
2 44 1
2 45 1
2 48 1
2 49 1
2 54 1
2 69 1
2 80 1
2 108 1
2 109 1
2 131 1
2 139 1
2 146 1
2 148 1
2 152 1
2 170 1
2 175 1
2 180 1
2 181 1
2 192 1
2 193 1
2 196 1
2 200 1
2 201 1
2 218 1
2 228 1
2 229 1
2 233 1
2 252 1
2 256 1
2 316 1
2 317 1
2 323 1
2 328 1
2 337 1
2 360 1
2 382 1
2 389 1
2 396 1
2 397 1
2 398 1
3 5 1
3 6 1
3 7 1
3 8 1
3 9 1
3 12 1
3 16 1
3 17 1
3 23 1
3 26 1
3 31 1
3 33 1
3 35 1
3 36 1
3 37 1
3 38 1
3 40 1
3 54 1
3 66 1
3 73 1
3 78 1
3 84 1
3 85 1
3 95 1
3 96 1
3 104 1
3 117 1
3 128 1
3 137 1
3 140 1
3 149 1
3 157 1
3 161 1
3 164 1
3 183 1
3 203 1
3 204 1
3 221 1
3 239 1
3 240 1
3 243 1
3 247 1
3 260 1
3 284 1
3 286 1
3 293 1
3 294 1
3 295 1
3 333 1
3 344 1
3 363 1
3 377 1
4 5 1
4 10 1
4 18 1
4 61 1
4 72 1
4 302 1
4 381 1
5 6 1
5 7 1
5 9 1
5 11 1
5 13 1
5 14 1
5 17 1
5 19 1
5 22 1
5 23 1
5 24 1
5 25 1
5 27 1
5 28 1
5 30 1
5 31 1
5 32 1
5 33 1
5 36 1
5 49 1
5 56 1
5 58 1
5 60 1
5 66 1
5 69 1
5 72 1
5 73 1
5 75 1
5 77 1
5 81 1
5 82 1
5 88 1
5 89 1
5 93 1
5 107 1
5 110 1
5 131 1
5 144 1
5 157 1
5 172 1
5 177 1
5 207 1
5 217 1
5 219 1
5 244 1
5 249 1
5 250 1
5 271 1
5 275 1
5 276 1
5 279 1
5 289 1
5 309 1
5 322 1
5 337 1
5 339 1
5 342 1
5 343 1
5 366 1
5 370 1
5 373 1
6 7 1
6 10 1
6 15 1
6 20 1
6 23 1
6 25 1
6 32 1
6 34 1
6 39 1
6 44 1
6 45 1
6 52 1
6 59 1
6 64 1
6 67 1
6 71 1
6 76 1
6 82 1
6 85 1
6 95 1
6 107 1
6 139 1
6 142 1
6 156 1
6 160 1
6 184 1
6 212 1
6 298 1
6 305 1
6 309 1
6 318 1
6 324 1
6 343 1
6 370 1
6 376 1
6 390 1
7 8 1
7 9 1
7 14 1
7 19 1
7 21 1
7 26 1
7 30 1
7 34 1
7 40 1
7 46 1
7 53 1
7 62 1
7 83 1
7 89 1
7 90 1
7 94 1
7 111 1
7 112 1
7 115 1
7 127 1
7 129 1
7 161 1
7 175 1
7 176 1
7 178 1
7 194 1
7 211 1
7 232 1
7 253 1
7 259 1
7 266 1
7 269 1
7 304 1
7 314 1
7 327 1
7 328 1
8 13 1
8 15 1
8 19 1
8 28 1
8 29 1
8 38 1
8 50 1
8 70 1
8 90 1
8 104 1
8 120 1
8 121 1
8 124 1
8 133 1
8 141 1
8 151 1
8 187 1
8 190 1
8 191 1
8 202 1
8 232 1
8 235 1
8 238 1
8 312 1
8 376 1
8 391 1
9 11 1
9 20 1
9 22 1
9 27 1
9 36 1
9 41 1
9 43 1
9 48 1
9 57 1
9 63 1
9 122 1
9 161 1
9 175 1
9 199 1
9 289 1
9 297 1
9 298 1
9 310 1
9 311 1
9 374 1
10 11 1
10 12 1
10 13 1
10 20 1
10 30 1
10 33 1
10 44 1
10 51 1
10 52 1
10 54 1
10 56 1
10 62 1
10 63 1
10 65 1
10 68 1
10 109 1
10 111 1
10 112 1
10 126 1
10 171 1
10 206 1
10 220 1
10 226 1
10 233 1
10 241 1
10 245 1
10 280 1
10 282 1
10 289 1
10 292 1
10 300 1
10 311 1
10 312 1
10 325 1
10 339 1
10 392 1
11 12 1
11 16 1
11 22 1
11 47 1
11 65 1
11 97 1
11 136 1
11 147 1
11 209 1
11 219 1
11 229 1
11 237 1
11 277 1
11 285 1
11 312 1
11 313 1
11 334 1
11 346 1
11 380 1
12 14 1
12 22 1
12 25 1
12 26 1
12 35 1
12 37 1
12 47 1
12 55 1
12 59 1
12 72 1
12 83 1
12 88 1
12 90 1
12 108 1
12 128 1
12 134 1
12 145 1
12 156 1
12 188 1
12 192 1
12 195 1
12 198 1
12 209 1
12 224 1
12 257 1
12 259 1
12 260 1
12 261 1
12 271 1
12 282 1
12 283 1
12 293 1
12 324 1
12 335 1
12 346 1
12 358 1
12 368 1
12 394 1
13 14 1
13 21 1
13 36 1
13 37 1
13 67 1
13 86 1
13 91 1
13 125 1
13 126 1
13 159 1
13 165 1
13 183 1
13 194 1
13 199 1
13 231 1
13 320 1
13 328 1
13 333 1
13 339 1
13 361 1
13 372 1
14 28 1
14 43 1
14 46 1
14 47 1
14 71 1
14 81 1
14 96 1
14 137 1
14 183 1
14 184 1
14 254 1
14 323 1
14 344 1
14 397 1
15 16 1
15 18 1
15 19 1
15 24 1
15 28 1
15 74 1
15 75 1
15 80 1
15 84 1
15 87 1
15 88 1
15 94 1
15 95 1
15 98 1
15 99 1
15 103 1
15 107 1
15 109 1
15 119 1
15 121 1
15 124 1
15 135 1
15 152 1
15 154 1
15 182 1
15 183 1
15 207 1
15 211 1
15 216 1
15 246 1
15 257 1
15 268 1
15 284 1
15 287 1
15 294 1
15 296 1
15 313 1
15 343 1
15 367 1
15 385 1
15 387 1
15 394 1
16 17 1
16 32 1
16 35 1
16 53 1
16 58 1
16 75 1
16 80 1
16 83 1
16 85 1
16 115 1
16 120 1
16 140 1
16 153 1
16 158 1
16 175 1
16 179 1
16 254 1
16 338 1
16 339 1
16 340 1
16 358 1
16 370 1
17 21 1
17 41 1
17 42 1
17 69 1
17 73 1
17 94 1
17 99 1
17 181 1
17 262 1
17 295 1
17 313 1
17 335 1
17 360 1
17 389 1
17 394 1
18 30 1
18 84 1
18 93 1
18 213 1
18 279 1
18 318 1
18 353 1
18 362 1
19 47 1
19 91 1
19 166 1
19 301 1
19 392 1
20 24 1
20 27 1
20 39 1
20 43 1
20 52 1
20 60 1
20 65 1
20 74 1
20 82 1
20 87 1
20 100 1
20 115 1
20 130 1
20 139 1
20 169 1
20 195 1
20 231 1
21 24 1
21 34 1
21 57 1
21 138 1
21 141 1
21 153 1
21 160 1
21 244 1
21 281 1
21 306 1
21 325 1
22 25 1
22 26 1
22 119 1
22 163 1
22 173 1
22 269 1
22 323 1
23 33 1
23 42 1
23 48 1
23 63 1
23 105 1
23 118 1
23 165 1
23 166 1
23 229 1
23 246 1
23 357 1
24 29 1
24 40 1
24 51 1
24 58 1
24 93 1
24 98 1
24 113 1
24 242 1
24 243 1
24 355 1
25 27 1
25 29 1
25 38 1
25 41 1
25 45 1
25 46 1
25 49 1
25 55 1
25 57 1
25 60 1
25 71 1
25 76 1
25 90 1
25 92 1
25 102 1
25 103 1
25 105 1
25 106 1
25 110 1
25 119 1
25 127 1
25 130 1
25 156 1
25 163 1
25 169 1
25 179 1
25 206 1
25 208 1
25 211 1
25 221 1
25 230 1
25 236 1
25 247 1
25 268 1
25 295 1
25 301 1
25 308 1
25 333 1
25 346 1
25 347 1
25 349 1
25 355 1
25 360 1
25 361 1
25 365 1
26 40 1
26 78 1
26 124 1
26 154 1
26 162 1
26 164 1
26 253 1
26 255 1
26 388 1
27 38 1
27 45 1
27 51 1
27 79 1
27 86 1
27 91 1
27 98 1
27 143 1
27 167 1
27 208 1
27 245 1
27 247 1
27 259 1
27 284 1
27 320 1
28 39 1
28 42 1
28 62 1
28 70 1
28 79 1
28 123 1
28 128 1
28 136 1
28 142 1
28 152 1
28 157 1
28 235 1
28 249 1
28 301 1
29 43 1
29 50 1
29 55 1
29 64 1
29 68 1
29 133 1
29 163 1
29 219 1
29 241 1
29 265 1
29 272 1
29 273 1
29 286 1
29 311 1
29 366 1
30 44 1
30 61 1
30 65 1
30 66 1
30 78 1
30 109 1
30 166 1
30 292 1
30 388 1
31 50 1
31 56 1
31 64 1
31 125 1
31 153 1
31 162 1
31 239 1
32 95 1
32 105 1
32 116 1
32 309 1
33 35 1
33 66 1
33 71 1
33 85 1
33 97 1
33 129 1
33 168 1
33 178 1
33 243 1
33 269 1
33 334 1
33 336 1
34 50 1
34 53 1
34 100 1
34 134 1
34 137 1
34 228 1
34 263 1
34 265 1
34 310 1
34 326 1
35 41 1
35 76 1
35 115 1
35 141 1
35 316 1
36 84 1
36 165 1
36 218 1
37 51 1
37 64 1
37 76 1
37 80 1
37 107 1
37 111 1
37 149 1
37 151 1
37 198 1
37 283 1
37 303 1
38 70 1
38 87 1
38 151 1
38 377 1
39 52 1
39 79 1
39 89 1
39 92 1
39 138 1
39 152 1
39 173 1
39 182 1
39 186 1
39 275 1
39 281 1
40 124 1
40 207 1
40 329 1
40 331 1
40 369 1
41 48 1
41 54 1
41 59 1
41 81 1
41 100 1
41 112 1
41 158 1
41 193 1
41 202 1
41 214 1
41 225 1
41 230 1
41 244 1
41 340 1
41 387 1
42 122 1
42 171 1
43 67 1
43 74 1
43 93 1
43 110 1
43 111 1
43 197 1
43 203 1
43 212 1
43 216 1
43 267 1
43 292 1
43 351 1
43 356 1
43 357 1
43 367 1
44 49 1
44 61 1
44 72 1
44 77 1
44 101 1
44 131 1
44 137 1
44 140 1
44 168 1
44 172 1
44 201 1
44 223 1
44 252 1
44 265 1
44 278 1
44 281 1
44 315 1
44 319 1
44 379 1
44 394 1
45 73 1
45 123 1
45 129 1
45 299 1
45 395 1
46 59 1
46 62 1
46 91 1
46 121 1
46 359 1
47 135 1
47 155 1
47 172 1
47 326 1
47 341 1
48 63 1
48 88 1
48 335 1
48 378 1
49 101 1
49 173 1
49 185 1
49 232 1
49 248 1
49 275 1
49 331 1
49 332 1
49 368 1
50 68 1
50 162 1
50 222 1
50 332 1
51 58 1
51 171 1
51 210 1
51 314 1
51 359 1
51 369 1
51 386 1
52 236 1
52 381 1
53 61 1
53 69 1
53 103 1
53 106 1
53 177 1
53 233 1
53 248 1
53 345 1
53 356 1
53 398 1
54 56 1
54 117 1
54 166 1
54 211 1
54 264 1
54 289 1
54 298 1
54 342 1
55 60 1
55 116 1
55 214 1
55 224 1
55 249 1
55 259 1
55 378 1
56 67 1
56 108 1
56 118 1
56 128 1
56 178 1
56 210 1
56 265 1
56 280 1
57 68 1
57 369 1
58 82 1
58 86 1
58 126 1
58 187 1
58 188 1
58 217 1
58 240 1
58 285 1
58 307 1
59 104 1
59 130 1
59 216 1
59 290 1
59 367 1
60 171 1
60 200 1
61 79 1
61 114 1
61 225 1
61 282 1
61 310 1
62 83 1
62 86 1
62 89 1
62 305 1
63 121 1
63 189 1
63 217 1
63 218 1
63 243 1
63 251 1
63 270 1
63 300 1
63 384 1
63 386 1
65 100 1
65 106 1
65 226 1
65 256 1
65 276 1
65 356 1
65 379 1
66 197 1
66 230 1
66 236 1
66 251 1
66 253 1
66 277 1
66 295 1
66 320 1
66 347 1
67 159 1
67 212 1
67 217 1
67 279 1
67 378 1
68 118 1
68 264 1
69 144 1
69 235 1
69 245 1
70 78 1
70 92 1
70 105 1
70 118 1
70 131 1
70 132 1
70 133 1
70 139 1
70 177 1
70 182 1
70 198 1
70 250 1
70 253 1
70 255 1
70 268 1
70 278 1
70 288 1
70 293 1
70 312 1
70 345 1
70 383 1
70 387 1
70 390 1
71 74 1
71 92 1
71 98 1
71 114 1
71 132 1
71 145 1
71 147 1
71 160 1
71 179 1
71 204 1
71 330 1
71 333 1
71 349 1
72 143 1
73 114 1
73 185 1
73 187 1
73 196 1
73 234 1
74 75 1
74 77 1
74 81 1
74 101 1
74 108 1
74 142 1
74 304 1
74 308 1
74 381 1
75 138 1
75 169 1
75 393 1
76 155 1
76 336 1
77 116 1
77 143 1
77 203 1
77 214 1
77 220 1
77 227 1
77 308 1
77 322 1
77 330 1
77 371 1
77 380 1
78 97 1
78 138 1
78 185 1
78 272 1
78 275 1
78 303 1
78 308 1
78 317 1
78 338 1
78 357 1
78 399 1
79 97 1
79 261 1
80 122 1
80 123 1
80 136 1
80 168 1
80 350 1
80 391 1
81 144 1
81 262 1
82 145 1
82 180 1
82 192 1
82 232 1
82 269 1
82 319 1
82 331 1
83 99 1
83 158 1
83 271 1
83 400 1
84 151 1
84 181 1
84 200 1
84 350 1
85 99 1
85 150 1
85 202 1
85 270 1
85 351 1
86 103 1
86 287 1
87 94 1
87 96 1
87 101 1
87 117 1
87 133 1
87 172 1
87 189 1
87 190 1
87 204 1
87 205 1
87 208 1
87 210 1
87 216 1
87 219 1
87 237 1
87 241 1
87 250 1
87 273 1
87 276 1
87 283 1
87 286 1
87 291 1
87 303 1
87 345 1
87 382 1
88 104 1
88 169 1
89 106 1
89 113 1
89 127 1
89 199 1
89 205 1
89 273 1
89 321 1
90 102 1
90 176 1
91 110 1
91 129 1
91 195 1
91 321 1
92 160 1
92 294 1
92 354 1
93 197 1
93 218 1
93 221 1
94 96 1
94 122 1
94 228 1
95 328 1
95 399 1
96 102 1
96 114 1
96 173 1
96 210 1
96 300 1
96 364 1
96 369 1
97 251 1
97 348 1
98 126 1
98 135 1
98 182 1
98 188 1
98 222 1
98 337 1
98 400 1
99 120 1
99 125 1
99 186 1
99 204 1
99 256 1
99 299 1
99 345 1
100 140 1
100 150 1
100 255 1
100 365 1
100 373 1
101 142 1
101 184 1
101 317 1
101 374 1
102 113 1
102 123 1
102 196 1
102 208 1
102 225 1
102 284 1
103 149 1
103 229 1
103 331 1
103 343 1
104 113 1
104 191 1
104 201 1
104 205 1
104 263 1
105 178 1
105 201 1
105 226 1
105 231 1
105 240 1
105 296 1
105 327 1
106 130 1
106 179 1
106 224 1
106 248 1
106 252 1
106 258 1
106 266 1
106 267 1
106 348 1
106 356 1
106 373 1
107 290 1
108 117 1
108 141 1
108 190 1
108 262 1
108 263 1
108 272 1
110 144 1
110 150 1
110 161 1
110 188 1
110 384 1
111 112 1
111 135 1
111 222 1
111 261 1
111 267 1
111 302 1
111 303 1
111 341 1
112 159 1
112 193 1
112 400 1
113 290 1
114 146 1
114 170 1
115 168 1
115 198 1
115 264 1
115 304 1
115 347 1
116 176 1
116 320 1
116 355 1
117 132 1
117 301 1
117 359 1
118 120 1
119 127 1
120 271 1
121 220 1
121 291 1
122 148 1
122 240 1
123 174 1
124 132 1
124 245 1
124 323 1
125 147 1
125 162 1
125 247 1
125 342 1
125 348 1
125 372 1
126 154 1
128 134 1
128 145 1
128 280 1
128 282 1
129 134 1
129 174 1
129 177 1
129 194 1
129 268 1
129 334 1
130 319 1
131 146 1
131 184 1
131 192 1
131 193 1
131 226 1
131 315 1
131 325 1
132 158 1
132 222 1
132 237 1
133 150 1
133 164 1
133 292 1
134 358 1
135 149 1
135 176 1
135 252 1
135 288 1
135 370 1
135 380 1
136 143 1
136 155 1
136 227 1
136 279 1
136 297 1
136 327 1
136 347 1
136 390 1
137 194 1
137 256 1
137 274 1
138 146 1
138 148 1
138 174 1
138 199 1
138 212 1
138 342 1
138 372 1
139 181 1
139 227 1
139 314 1
139 317 1
139 363 1
140 159 1
140 351 1
140 354 1
141 153 1
141 187 1
141 214 1
141 220 1
141 302 1
141 384 1
141 398 1
142 363 1
144 206 1
144 242 1
145 223 1
145 387 1
146 148 1
146 249 1
146 305 1
147 355 1
148 167 1
149 180 1
150 164 1
150 170 1
151 180 1
151 326 1
151 353 1
151 377 1
152 215 1
152 221 1
152 223 1
152 307 1
152 341 1
152 344 1
153 395 1
154 234 1
155 234 1
155 315 1
156 165 1
157 197 1
159 372 1
160 167 1
160 225 1
160 274 1
160 280 1
161 170 1
161 205 1
161 215 1
161 241 1
161 254 1
161 327 1
162 185 1
162 186 1
162 321 1
163 242 1
164 167 1
164 186 1
164 224 1
164 236 1
164 246 1
164 261 1
164 306 1
164 309 1
164 311 1
164 329 1
164 350 1
164 353 1
166 190 1
166 200 1
166 239 1
166 246 1
166 362 1
167 242 1
167 266 1
169 382 1
170 191 1
170 206 1
170 251 1
170 307 1
170 318 1
171 244 1
172 361 1
175 272 1
176 207 1
179 191 1
179 196 1
179 322 1
179 366 1
179 371 1
180 189 1
180 258 1
182 297 1
182 359 1
183 254 1
183 350 1
183 385 1
185 213 1
187 189 1
187 234 1
188 255 1
189 310 1
189 358 1
190 364 1
190 383 1
193 209 1
193 238 1
194 202 1
194 235 1
194 257 1
194 299 1
194 334 1
195 291 1
195 329 1
197 228 1
197 230 1
197 277 1
197 314 1
197 329 1
198 250 1
198 341 1
199 215 1
199 231 1
199 352 1
200 380 1
201 263 1
201 390 1
203 213 1
204 281 1
204 364 1
206 274 1
208 290 1
208 306 1
209 258 1
209 285 1
209 306 1
211 215 1
211 332 1
213 344 1
213 362 1
214 223 1
214 354 1
215 237 1
215 353 1
216 258 1
218 384 1
218 386 1
218 397 1
220 248 1
220 379 1
221 238 1
221 274 1
223 354 1
224 227 1
224 296 1
224 393 1
225 298 1
225 396 1
226 379 1
227 385 1
229 260 1
229 316 1
229 319 1
229 324 1
229 371 1
229 376 1
229 395 1
230 277 1
230 278 1
231 352 1
233 238 1
233 239 1
233 294 1
234 336 1
235 375 1
236 287 1
236 291 1
236 313 1
236 321 1
237 260 1
237 338 1
239 300 1
241 273 1
241 305 1
243 288 1
244 264 1
246 368 1
247 270 1
247 278 1
247 385 1
248 363 1
249 396 1
250 276 1
250 299 1
251 318 1
251 348 1
251 349 1
251 375 1
254 257 1
254 286 1
256 346 1
257 389 1
261 270 1
262 336 1
262 382 1
263 287 1
263 315 1
263 340 1
263 367 1
264 330 1
264 357 1
264 381 1
266 330 1
266 335 1
266 397 1
266 399 1
268 288 1
268 325 1
269 316 1
269 324 1
270 285 1
270 386 1
271 304 1
272 307 1
274 360 1
282 365 1
288 332 1
288 374 1
289 352 1
290 297 1
290 393 1
292 362 1
292 366 1
292 392 1
293 322 1
293 391 1
297 337 1
304 368 1
306 352 1
308 392 1
308 400 1
309 340 1
309 395 1
312 365 1
313 388 1
319 374 1
321 364 1
325 338 1
325 375 1
326 376 1
331 391 1
337 375 1
346 349 1
346 377 1
348 361 1
348 371 1
350 351 1
350 388 1
352 399 1
353 383 1
361 378 1
365 373 1
376 389 1
378 383 1
384 393 1
388 398 1
